param n := 60;
param c := 1000;
param : V : p w :=
   0	  32	 366
   1	  92	 268
   2	  84	 366
   3	  32	 430
   4	  26	 263
   5	  47	 307
   6	  67	 414
   7	   2	 287
   8	  92	 299
   9	  16	 495
  10	  69	 251
  11	  99	 254
  12	  40	 474
  13	  19	 252
  14	  54	 274
  15	   4	 370
  16	  82	 269
  17	  38	 361
  18	  35	 473
  19	  17	 252
  20	  22	 275
  21	  10	 472
  22	  82	 259
  23	   1	 269
  24	  66	 444
  25	  17	 258
  26	  60	 298
  27	  73	 439
  28	   1	 273
  29	  31	 288
  30	  25	 445
  31	   8	 272
  32	  64	 283
  33	  12	 419
  34	  52	 261
  35	  51	 320
  36	  81	 363
  37	  31	 271
  38	  87	 366
  39	  43	 355
  40	 100	 273
  41	  84	 372
  42	  19	 466
  43	  37	 262
  44	  83	 272
  45	  24	 357
  46	  41	 292
  47	  51	 351
  48	  58	 395
  49	  28	 255
  50	  75	 350
  51	  95	 350
  52	  38	 303
  53	  17	 347
  54	  88	 450
  55	  87	 252
  56	  92	 298
  57	  44	 410
  58	  24	 275
  59	  44	 315
;

set E :=
   0	   4
   0	   9
   0	  31
   0	  52
   0	  56
   0	  58
   1	  17
   1	  29
   1	  39
   1	  48
   1	  49
   2	   4
   2	  11
   2	  43
   2	  45
   2	  46
   3	  20
   3	  26
   3	  31
   3	  37
   3	  38
   3	  54
   4	  16
   4	  18
   4	  21
   4	  32
   4	  35
   4	  37
   4	  49
   5	  14
   5	  15
   5	  28
   5	  41
   5	  43
   5	  54
   6	   7
   6	  13
   6	  15
   6	  26
   6	  30
   6	  31
   6	  35
   6	  36
   6	  39
   6	  52
   7	  20
   7	  22
   7	  26
   7	  28
   7	  30
   7	  33
   7	  38
   7	  50
   7	  56
   7	  58
   8	  22
   8	  24
   8	  27
   8	  45
   8	  48
   8	  58
   9	  15
   9	  17
   9	  20
   9	  53
  10	  12
  10	  23
  10	  24
  10	  28
  10	  29
  10	  30
  10	  38
  10	  41
  10	  42
  10	  43
  10	  48
  11	  14
  11	  16
  11	  17
  11	  21
  11	  34
  11	  42
  11	  55
  12	  25
  12	  38
  12	  44
  12	  52
  12	  54
  12	  55
  13	  29
  13	  38
  13	  46
  14	  15
  14	  39
  15	  18
  16	  18
  16	  25
  16	  33
  16	  37
  16	  41
  16	  43
  17	  28
  17	  53
  18	  28
  19	  31
  19	  46
  20	  22
  20	  29
  20	  44
  20	  52
  21	  31
  21	  35
  21	  38
  21	  54
  22	  25
  22	  34
  22	  37
  22	  51
  22	  52
  23	  25
  23	  35
  23	  55
  24	  28
  24	  38
  24	  59
  25	  41
  25	  44
  26	  36
  26	  51
  27	  30
  27	  38
  27	  44
  28	  35
  28	  52
  28	  53
  29	  33
  29	  38
  29	  40
  29	  56
  29	  58
  29	  59
  30	  34
  30	  41
  30	  44
  30	  54
  30	  58
  31	  48
  31	  50
  31	  53
  31	  56
  31	  57
  32	  42
  32	  43
  32	  48
  32	  57
  33	  47
  34	  55
  35	  49
  35	  52
  36	  38
  36	  43
  36	  55
  37	  58
  37	  59
  38	  51
  39	  47
  39	  50
  39	  53
  41	  47
  42	  47
  43	  54
  43	  55
  44	  49
  44	  52
  48	  56
  49	  54
  49	  58
  52	  57
  55	  59
  57	  58
;
